c read Graph
c width = 276
c time = 413 ms
c width = 23
c time = 928 ms
c width = 22
c time = 1219 ms
c width = 21
c time = 2908 ms
c width = 20
c time = 13325 ms
c width = 19
c time = 25304 ms
c width = 18
c time = 34975 ms
c width = 17
c time = 41474 ms
c width = 17
c time = 44283 ms
s td 258 18 289
b 1 1 2 18
b 2 2 3 18 19
b 3 15 16 33 34
b 4 3 18 19 35
b 5 15 33 34 51
b 6 239 256 257 274
b 7 255 271 272 288
b 8 239 257 274 275
b 9 255 271 287 288
b 10 3 4 5 21
b 11 3 5 20 21 36 52
b 12 3 20 35 36 52
b 13 3 19 20 35 36
b 14 5 20 21 36 38 52 54
b 15 20 36 37 38 54
b 16 5 21 36 38 52 54 70
b 17 36 52 53 54 70
b 18 5 21 38 52 54 70 86
b 19 5 21 23 38 39 54 70 86
b 20 5 21 22 23 39
b 21 5 23 38 39 41 54 59 70 77 86 95 96 100 102 114 116 118 132
b 22 23 38 39 41 54 57 59 70 77 86 95 96 100 102 114 116 118 132
b 23 38 39 41 54 56 57 59 70 77 86 95 96 100 102 114 116 118 132
b 24 38 41 54 56 57 59 70 72 77 86 95 96 100 102 114 116 118 132
b 25 41 54 56 57 58 59 70 72 77 86 95 96 100 102 114 116 118 132
b 26 54 56 57 58 59 70 72 77 86 88 95 96 100 102 114 116 118 132
b 27 56 57 58 59 70 72 74 77 86 88 95 96 100 102 114 116 118 132
b 28 56 58 59 70 72 74 77 86 88 90 95 96 100 102 114 116 118 132
b 29 58 59 70 72 74 75 77 86 88 90 95 96 100 102 114 116 118 132
b 30 59 70 72 74 75 77 86 88 90 95 96 100 102 104 114 116 118 132
b 31 70 86 87 88 104
b 32 59 72 74 75 76 77 86 88 90 95 96 100 102 104 114 116 118 132
b 33 72 74 75 76 77 86 88 90 95 96 100 102 104 106 114 116 118 132
b 34 74 75 76 77 86 88 90 92 95 96 100 102 104 106 114 116 118 132
b 35 74 76 77 86 88 90 92 95 96 100 102 104 106 108 114 116 118 132
b 36 74 90 92 95 96 100 102 104 106 108 114 116 118 132
b 37 74 90 91 92 108
b 38 76 77 86 88 90 92 95 96 100 102 104 106 108 114 116 118 124 132
b 39 90 106 107 108 124
b 40 76 77 86 88 92 93 95 96 100 102 104 106 108 114 116 118 124 132
b 41 77 86 88 92 93 94 95 96 100 102 104 106 108 114 116 118 124 132
b 42 86 88 92 93 94 95 96 100 102 104 106 108 110 114 116 118 124 132
b 43 86 88 92 94 95 96 100 102 104 106 108 110 111 114 116 118 124 132
b 44 86 88 92 95 96 100 102 104 106 108 110 111 112 114 116 118 124 132
b 45 86 88 92 96 100 102 104 106 108 110 111 112 114 116 118 124 128 132
b 46 86 88 92 96 100 102 104 106 108 110 112 114 116 118 120 124 128 132
b 47 88 92 96 100 102 104 106 108 110 112 114 116 118 120 122 124 128 132
b 48 92 96 100 102 104 106 108 109 110 112 114 116 118 120 122 124 128 132
b 49 96 100 102 104 106 108 109 110 112 114 116 118 120 122 124 128 130 132
b 50 100 102 104 106 108 109 110 112 114 116 118 120 122 124 128 130 132 138
b 51 100 102 106 108 109 110 112 114 116 118 120 122 124 128 130 132 138 140
b 52 100 102 108 109 110 112 114 116 118 120 122 124 126 128 130 132 138 140
b 53 100 102 108 110 112 114 116 118 120 122 124 126 128 130 132 138 140 142
b 54 100 102 110 112 114 116 118 120 122 124 126 128 130 132 138 140 142 144
b 55 100 102 112 114 116 118 120 122 124 126 128 130 132 138 140 142 144 146
b 56 100 102 114 116 118 120 122 124 126 128 130 132 138 140 142 144 146 148
b 57 100 102 116 118 120 122 124 126 128 130 132 138 140 142 144 146 148 154
b 58 100 102 116 118 122 124 126 128 130 132 138 139 140 142 144 146 148 154
b 59 100 102 116 118 124 126 128 130 132 138 139 140 142 144 146 148 154 160
b 60 100 102 116 118 124 128 130 132 138 139 140 142 144 146 148 154 160 164
b 61 100 102 116 118 124 128 132 138 139 140 142 144 146 148 154 156 160 164
b 62 100 102 116 118 124 128 132 138 140 142 144 146 148 154 156 160 164 172
b 63 138 154 155 156 172
b 64 100 102 116 118 124 128 132 134 140 142 144 146 148 154 156 160 164 172
b 65 102 116 118 124 128 132 134 136 140 142 144 146 148 154 156 160 164 172
b 66 116 118 124 128 132 133 134 136 140 142 144 146 148 154 156 160 164 172
b 67 118 124 128 132 133 134 136 140 142 144 146 148 152 154 156 160 164 172
b 68 124 128 132 133 134 136 140 142 144 145 146 148 152 154 156 160 164 172
b 69 124 132 133 134 136 140 142 144 145 146 148 150 152 154 156 160 164 172
b 70 124 132 134 136 140 142 144 145 146 148 150 152 154 156 160 164 166 172
b 71 124 134 136 140 142 144 145 146 148 150 152 154 156 160 164 166 168 172
b 72 124 136 140 142 144 145 146 148 150 152 154 156 160 164 166 168 170 172
b 73 124 140 142 144 145 146 148 150 152 154 156 160 162 164 166 168 170 172
b 74 124 140 142 144 146 148 150 152 154 156 160 162 164 166 168 170 172 178
b 75 124 140 142 146 148 150 152 154 156 160 162 164 166 168 170 172 178 180
b 76 124 140 142 148 150 152 154 156 160 162 164 166 168 170 172 178 180 182
b 77 124 140 142 150 152 154 156 160 162 164 166 168 170 172 178 180 182 184
b 78 124 140 142 152 154 156 160 162 164 166 168 170 172 178 180 182 184 186
b 79 124 140 142 154 156 160 162 164 166 168 170 172 178 180 182 184 186 196
b 80 124 140 142 154 156 160 164 166 168 170 172 178 180 182 184 186 196 200
b 81 124 140 142 154 156 160 164 168 170 172 178 180 182 184 186 196 200 202
b 82 124 140 142 154 156 160 164 170 172 178 180 182 184 186 196 200 202 218
b 83 184 200 201 202 218
b 84 168 184 185 186 202
b 85 166 182 183 184 200
b 86 162 178 179 180 196
b 87 152 168 169 170 186
b 88 150 166 167 168 184
b 89 148 164 165 166 182
b 90 146 162 163 164 180
b 91 144 160 161 162 178
b 92 136 152 153 170
b 93 134 150 151 152 168
b 94 132 148 149 150 166
b 95 118 134 135 136 152
b 96 102 118 119 136
b 97 100 116 117 118 134
b 98 130 146 147 148 164
b 99 126 142 143 144 160
b 100 120 137 138 154
b 101 114 130 131 132 148
b 102 112 128 129 130 146
b 103 110 126 127 128 144
b 104 108 124 125 126 142
b 105 106 122 123 124 140
b 106 104 120 121 122 138
b 107 96 112 113 114 130
b 108 88 104 105 106 122
b 109 86 103 104 120
b 110 72 88 89 90 106
b 111 56 72 73 74 90
b 112 54 70 71 72 88
b 113 38 54 55 56 72
b 114 23 39 40 41 57
b 115 5 9 23 27 41 45 59 63 77 79 95 96 100 102 114 116 118 132
b 116 5 9 23 27 41 43 45 59 63 77 79 95
b 117 27 43 45 59 61 63 77 79 95
b 118 45 61 62 63 79
b 119 43 59 60 61 77
b 120 27 43 44 45 61
b 121 61 77 78 79 95
b 122 5 9 23 25 27 41 43 59
b 123 5 7 9 23 25 41
b 124 5 6 7 23
b 125 7 23 24 25 41
b 126 7 8 9 25
b 127 9 25 26 27 43
b 128 25 41 42 43 59
b 129 9 27 45 63 64 79 82 96 100 102 114 116 118 132
b 130 9 13 27 29 45 63 64 82 100 102 118
b 131 9 11 13 27 29 45
b 132 9 10 11 27
b 133 11 12 13 29
b 134 11 27 28 29 45
b 135 13 29 45 47 63 64 82 100 102 118
b 136 29 45 46 47 63
b 137 13 29 47 64 82 84 100 102 118
b 138 13 29 47 64 66 82 84 100 102
b 139 13 29 47 48 64 66 82 84 102
b 140 48 64 65 66 82
b 141 13 29 31 47 48 66 84 102
b 142 13 29 30 31 47
b 143 13 31 48 66 68 84 102
b 144 68 84 85 102
b 145 13 31 48 50 66 68 84
b 146 50 66 67 68 84
b 147 13 31 32 48 50 66 68
b 148 32 48 49 50 66
b 149 13 15 31 32 50 68
b 150 13 14 15 31
b 151 15 32 50 51 68
b 152 15 32 33 50 51
b 153 66 82 83 84 100
b 154 84 100 101 102 118
b 155 63 64 79 82 96 98 100 114 116 132
b 156 98 114 115 116 132
b 157 63 64 79 80 82 96 98 114
b 158 80 96 97 98 114
b 159 64 80 81 82 98
b 160 82 98 99 100 116
b 161 52 69 70 86
b 162 124 140 142 154 156 160 164 170 172 178 180 181 182 186 196 200 202 218
b 163 124 140 142 154 156 160 170 172 178 180 181 182 186 187 196 200 202 218
b 164 124 140 142 154 156 160 172 178 180 181 182 186 187 196 198 200 202 218
b 165 124 140 142 154 156 160 172 178 180 182 186 187 196 198 200 202 214 218
b 166 124 140 142 154 156 160 172 178 182 186 187 196 198 200 202 214 216 218
b 167 124 140 142 154 156 160 172 178 186 187 196 198 200 202 203 214 216 218
b 168 124 140 142 154 156 160 172 178 187 196 198 200 202 203 204 214 216 218
b 169 124 140 142 154 156 160 172 178 196 198 200 202 203 204 214 215 216 218
b 170 124 140 142 154 156 160 172 178 196 200 202 203 204 214 215 216 218 234
b 171 124 140 142 154 156 160 172 178 196 202 203 204 214 215 216 218 220 234
b 172 124 140 142 154 156 160 172 178 196 202 204 214 215 216 218 220 234 236
b 173 124 140 142 154 156 160 172 178 196 204 214 215 216 218 220 221 234 236
b 174 124 140 142 154 156 160 172 178 196 214 215 216 218 220 221 232 234 236
b 175 124 140 142 154 156 160 172 178 196 214 216 218 220 221 232 233 234 236
b 176 124 140 142 154 156 160 172 178 196 214 218 220 221 232 233 234 235 236
b 177 124 140 142 154 156 160 172 178 196 214 220 221 232 233 234 235 236 238
b 178 124 140 142 154 156 160 172 178 196 214 220 232 233 234 235 236 238 250
b 179 124 140 142 154 156 160 172 178 196 214 220 232 234 235 236 238 250 252
b 180 124 140 142 154 156 160 172 178 196 214 220 232 234 236 238 250 252 268
b 181 124 140 142 154 156 160 172 178 196 214 220 232 236 238 250 252 268 286
b 182 124 140 142 154 156 160 172 178 196 214 232 238 250 252 266 268 282 286
b 183 250 252 266 268 282 284 286
b 184 266 268 282 283 284 286
b 185 124 140 142 154 156 160 172 178 196 212 214 228 232 246 250 264 266 282
b 186 124 140 142 154 156 160 172 174 178 192 196 210 212 228 246 264 282
b 187 154 156 172 174 192 210 228 244 246 260 264 278 282
b 188 154 156 172 174 190 192 210 228 244 260 278
b 189 156 172 173 174 190
b 190 154 172 174 190 192 208 210 228 244 260 278
b 191 154 172 190 192 208 210 226 228 244 260 278
b 192 210 226 227 228 244
b 193 192 208 209 210 226
b 194 154 172 190 206 208 222 226 244 260 278
b 195 154 172 188 190 206 222
b 196 188 205 206 222
b 197 172 188 189 190 206
b 198 154 171 172 188
b 199 190 206 208 222 226 242 244 260 278
b 200 190 206 208 222 224 226 242 260 278
b 201 190 206 207 208 224
b 202 208 224 225 226 242
b 203 206 222 224 242 260 276 278
b 204 206 222 224 242 258 260 276
b 205 242 258 259 260 276
b 206 206 222 224 240 242 258 276
b 207 222 240 258 275 276
b 208 222 239 240 258 275
b 209 239 240 257 258 275
b 210 224 240 241 242 258
b 211 206 222 223 224 240
b 212 260 276 277 278
b 213 226 242 243 244 260
b 214 174 190 191 192 208
b 215 228 244 246 260 262 264 278 282
b 216 228 244 245 246 262
b 217 246 262 264 278 280 282
b 218 264 280 281 282
b 219 262 278 279 280
b 220 246 262 263 264 280
b 221 244 260 261 262 278
b 222 124 140 142 156 160 174 176 178 192 196 210 212 228
b 223 124 140 142 156 158 160 174 176 192
b 224 158 174 175 176 192
b 225 124 140 141 142 158
b 226 140 156 157 158 174
b 227 142 158 159 160 176
b 228 160 176 178 192 194 196 210 212 228
b 229 176 192 193 194 210
b 230 178 194 195 196 212
b 231 160 176 177 178 194
b 232 194 210 211 212 228
b 233 196 212 214 228 230 232 246 250 264 266 282
b 234 196 212 213 214 230
b 235 212 228 229 230 246
b 236 214 230 232 246 248 250 264 266 282
b 237 248 264 265 266 282
b 238 232 248 249 250 266
b 239 214 230 231 232 248
b 240 230 246 247 248 264
b 241 234 250 251 252 268
b 242 202 218 219 220 236
b 243 268 284 285 286
b 244 220 236 238 252 268 270 286
b 245 220 236 238 252 254 270 286
b 246 238 254 270 286 287
b 247 238 254 255 270 287
b 248 254 255 270 271 287
b 249 220 236 237 238 254
b 250 236 252 253 254 270
b 251 252 268 269 270 286
b 252 250 266 267 268 284
b 253 200 216 217 218 234
b 254 182 198 199 200 216
b 255 180 196 197 198 214
b 256 272 288 289
b 257 256 273 274
b 258 16 17 34
1 2
2 4
3 258
3 5
4 13
5 152
6 257
6 8
7 256
7 9
8 209
9 248
10 11
11 14
11 12
12 13
14 16
14 15
16 18
16 17
18 161
18 19
19 21
19 20
21 115
21 22
22 114
22 23
23 24
24 113
24 25
25 26
26 112
26 27
27 28
28 111
28 29
29 30
30 32
30 31
32 33
33 110
33 34
34 35
35 38
35 36
36 37
38 40
38 39
40 41
41 42
42 43
43 44
44 45
45 46
46 109
46 47
47 108
47 48
48 49
49 107
49 50
50 106
50 51
51 105
51 52
52 53
53 104
53 54
54 103
54 55
55 102
55 56
56 101
56 57
57 100
57 58
58 59
59 99
59 60
60 98
60 61
61 62
62 64
62 63
64 97
64 65
65 96
65 66
66 67
67 95
67 68
68 69
69 70
70 94
70 71
71 93
71 72
72 92
72 73
73 74
74 91
74 75
75 90
75 76
76 89
76 77
77 88
77 78
78 87
78 79
79 86
79 80
80 85
80 81
81 84
81 82
82 162
82 83
115 116
115 129
116 122
116 117
117 118
117 119
117 120
117 121
122 128
122 127
122 123
123 126
123 124
123 125
129 130
129 155
130 135
130 131
131 133
131 134
131 132
135 137
135 136
137 138
137 154
138 153
138 139
139 140
139 141
141 142
141 143
143 144
143 145
145 146
145 147
147 148
147 149
149 150
149 151
151 152
155 160
155 157
155 156
157 159
157 158
162 163
163 164
164 165
165 255
165 166
166 254
166 167
167 168
168 169
169 170
170 253
170 171
171 172
172 242
172 173
173 174
174 175
175 176
176 177
177 178
178 179
179 180
180 241
180 181
181 244
181 182
182 185
182 183
183 252
183 243
183 184
185 233
185 186
186 222
186 187
187 188
187 215
188 190
188 189
190 191
190 214
191 193
191 194
191 192
194 195
194 199
195 198
195 196
195 197
199 213
199 200
200 201
200 202
200 203
203 212
203 204
204 205
204 206
206 207
206 211
206 210
207 208
208 209
215 216
215 217
215 221
217 218
217 219
217 220
222 223
222 228
223 227
223 226
223 224
223 225
228 230
228 231
228 232
228 229
233 235
233 236
233 234
236 240
236 237
236 238
236 239
244 251
244 245
245 246
245 249
245 250
246 247
247 248
